NAME : 10_3_3_3_(41).dat
COMMENT : Henke, Speranza, Wäscher, 2015
TYPE : MCVRP
DIMENSION : 11
EDGE_WEIGHT_TYPE : DISTANCE_MATRIX
CAPACITY : 1000
VEHICLES : 2
PRODUCT TYPES : 3
COMPARTMENTS : 3
NODE_COORD_SECTION
1 50 50
2 4.42 78.78
3 97.06 2.29
4 85.65 92.33
5 54.92 7.23
6 62.05 51.66
7 50.53 24.89
8 19.81 20.14
9 76.68 25.96
10 44.55 15.9
11 89.96 3.59
DEMAND_SECTION
1 0 0 0
2 28 21 3
3 78 63 9
4 47 4 59
5 152 55 61
6 81 47 3
7 71 32 19
8 68 40 55
9 19 34 4
10 118 42 47
11 5 61 7
DEPOT_SECTION
1
EOF